edges = [{1, 2, 28}, {1, 2, 3, 29}, {2, 3, 4, 30}, {3, 4, 5, 31}, {32, 4, 5, 6}, {33, 5, 6, 7}, {8, 34, 6, 7}, {8, 9, 35, 7}, {8, 9, 10, 36}, {9, 10, 11, 37}, {10, 11, 12, 38}, {11, 12, 13, 39}, {40, 12, 13}, {41, 14, 15}, {16, 42, 14, 15}, {16, 17, 15}, {16, 17, 18}, {17, 18, 19}, {18, 19, 20}, {43, 19, 20, 21}, {20, 21, 22}, {44, 21, 22, 23}, {24, 45, 22, 23}, {24, 25, 46, 23}, {24, 25, 26, 47}, {48, 25, 26, 27}, {26, 27}, {1, 28, 29, 49}, {2, 50, 28, 29, 30}, {3, 51, 29, 30, 31}, {32, 4, 52, 30, 31}, {32, 33, 5, 53, 31}, {32, 33, 34, 6, 54}, {33, 34, 35, 7, 55}, {34, 35, 36, 8, 56}, {35, 36, 37, 9, 57}, {36, 37, 38, 10, 58}, {37, 38, 39, 11, 59}, {38, 39, 40, 12, 60}, {40, 61, 13, 39}, {62, 41, 42, 14}, {41, 42, 15}, {43, 20}, {44, 45, 22}, {44, 45, 46, 23, 63}, {64, 45, 46, 47, 24}, {65, 46, 47, 48, 25}, {48, 26, 66, 47}, {72, 49, 50, 28}, {73, 49, 50, 51, 29}, {74, 50, 51, 52, 30}, {75, 51, 52, 53, 31}, {32, 76, 52, 53, 54}, {33, 77, 53, 54, 55}, {34, 78, 54, 55, 56}, {35, 79, 55, 56, 57}, {36, 80, 56, 57, 58}, {37, 81, 57, 58, 59}, {38, 82, 58, 59, 60}, {39, 83, 59, 60, 61}, {40, 60, 61, 84}, {41, 85, 62}, {64, 45, 86, 63}, {64, 65, 46, 87, 63}, {64, 65, 66, 47, 88}, {48, 65, 66, 89}, {96, 67, 68}, {97, 67, 68, 69}, {98, 68, 69, 70}, {99, 69, 70, 71}, {100, 70, 71}, {72, 49, 102, 73}, {103, 72, 73, 74, 50}, {104, 73, 74, 75, 51}, {105, 74, 75, 76, 52}, {106, 75, 76, 77, 53}, {107, 76, 77, 78, 54}, {108, 77, 78, 79, 55}, {109, 78, 79, 80, 56}, {110, 79, 80, 81, 57}, {111, 80, 81, 82, 58}, {112, 81, 82, 83, 59}, {113, 82, 83, 84, 60}, {114, 83, 84, 61}, {85, 62}, {87, 117, 86, 63}, {64, 118, 86, 88, 87}, {65, 87, 119, 88, 89}, {66, 88, 89, 90, 120}, {89, 90, 91, 121}, {90, 91, 92, 122}, {123, 91, 92, 93}, {124, 92, 93, 94}, {125, 93, 94, 95}, {126, 94, 95}, {96, 97, 67, 127}, {96, 97, 98, 128, 68}, {129, 97, 98, 99, 69}, {98, 99, 100, 130, 70}, {131, 99, 100, 101, 71}, {132, 100, 101, 102}, {133, 101, 102, 72, 103}, {134, 102, 104, 73, 103}, {135, 104, 105, 74, 103}, {104, 105, 106, 75, 136}, {137, 105, 106, 107, 76}, {106, 107, 108, 77, 138}, {139, 107, 108, 109, 78}, {140, 108, 109, 110, 79}, {141, 109, 110, 80, 111}, {142, 110, 112, 81, 111}, {143, 112, 113, 82, 111}, {112, 113, 114, 83, 144}, {113, 114, 145, 84}, {146, 115, 116}, {147, 115, 116, 117}, {148, 116, 118, 117, 86}, {149, 117, 119, 118, 87}, {119, 150, 118, 88, 120}, {121, 119, 151, 120, 89}, {122, 120, 121, 90, 152}, {153, 91, 121, 122, 123}, {154, 92, 122, 123, 124}, {123, 93, 155, 124, 125}, {124, 94, 156, 125, 126}, {157, 125, 126, 95}, {96, 128, 160, 127}, {128, 97, 129, 161, 127}, {128, 129, 98, 162, 130}, {129, 130, 99, 131, 163}, {130, 131, 164, 132, 100}, {131, 132, 101, 133, 165}, {132, 133, 166, 134, 102}, {133, 134, 135, 167, 103}, {134, 135, 104, 168, 136}, {135, 136, 105, 137, 169}, {136, 137, 106, 170, 138}, {137, 138, 107, 139, 171}, {138, 139, 172, 140, 108}, {139, 140, 109, 141, 173}, {140, 141, 174, 142, 110}, {141, 142, 143, 175, 111}, {142, 143, 112, 176, 144}, {143, 144, 113, 145, 177}, {144, 145, 114, 178}, {146, 115, 147, 181}, {146, 147, 148, 116, 182}, {147, 148, 117, 149, 183}, {148, 149, 150, 118, 184}, {119, 149, 150, 151, 185}, {150, 151, 120, 186, 152}, {153, 151, 152, 121, 187}, {154, 152, 153, 122, 188}, {155, 153, 154, 123, 189}, {124, 154, 155, 156, 190}, {157, 155, 156, 125, 191}, {192, 156, 157, 126}, {158, 159}, {160, 158, 159}, {160, 161, 193, 127, 159}, {128, 161, 162, 160, 194}, {129, 162, 161, 163, 195}, {162, 130, 196, 163, 164}, {131, 164, 197, 163, 165}, {164, 132, 198, 165, 166}, {133, 166, 167, 199, 165}, {166, 134, 168, 200, 167}, {167, 168, 169, 201, 135}, {136, 169, 170, 168, 202}, {137, 170, 169, 171, 203}, {170, 138, 204, 171, 172}, {139, 172, 205, 171, 173}, {172, 140, 206, 173, 174}, {141, 174, 175, 207, 173}, {174, 142, 176, 208, 175}, {175, 176, 177, 209, 143}, {144, 177, 178, 176, 210}, {145, 178, 177, 211}, {179, 213}, {218, 180, 181}, {146, 180, 181, 182, 219}, {147, 181, 182, 183, 220}, {148, 182, 183, 184, 221}, {149, 183, 184, 185, 222}, {150, 184, 185, 186, 223}, {224, 151, 185, 186, 187}, {225, 152, 186, 187, 188}, {226, 153, 187, 188, 189}, {227, 154, 188, 189, 190}, {228, 155, 189, 190, 191}, {192, 229, 156, 190, 191}, {192, 157, 230, 191}, {160, 193, 194, 232}, {161, 194, 195, 193, 233}, {194, 162, 195, 196, 234}, {163, 196, 197, 195, 235}, {196, 164, 197, 198, 236}, {197, 165, 198, 199, 237}, {198, 166, 200, 199, 238}, {199, 200, 201, 167, 239}, {168, 201, 202, 200, 240}, {169, 202, 203, 201, 241}, {202, 170, 203, 204, 242}, {171, 204, 205, 203, 243}, {204, 172, 205, 206, 244}, {205, 173, 206, 207, 245}, {206, 174, 208, 207, 246}, {207, 208, 209, 175, 247}, {176, 209, 210, 208, 248}, {177, 210, 211, 209, 249}, {250, 210, 178, 211}, {252, 212, 213}, {179, 212, 213, 214, 253}, {254, 213, 214, 215}, {216, 255, 214, 215}, {216, 217, 256, 215}, {216, 217, 218, 257}, {258, 180, 217, 218, 219}, {259, 181, 218, 219, 220}, {260, 182, 219, 220, 221}, {261, 183, 220, 221, 222}, {262, 184, 221, 222, 223}, {224, 263, 185, 222, 223}, {224, 225, 264, 186, 223}, {224, 225, 226, 265, 187}, {225, 226, 227, 266, 188}, {226, 227, 228, 267, 189}, {227, 228, 229, 268, 190}, {228, 229, 230, 269, 191}, {192, 229, 230, 231, 270}, {271, 230, 231}, {232, 193, 233, 272}, {194, 232, 233, 234, 273}, {195, 233, 234, 235, 274}, {196, 234, 235, 236, 275}, {197, 235, 236, 237, 276}, {198, 236, 237, 238, 277}, {199, 237, 238, 239, 278}, {200, 238, 239, 240, 279}, {201, 239, 240, 241, 280}, {202, 240, 241, 242, 281}, {203, 241, 242, 243, 282}, {204, 242, 243, 244, 283}, {205, 243, 244, 245, 284}, {206, 244, 245, 246, 285}, {207, 245, 246, 247, 286}, {208, 246, 247, 248, 287}, {288, 209, 247, 248, 249}, {289, 210, 248, 249, 250}, {249, 250, 211, 290}, {251, 252, 293}, {294, 212, 251, 252, 253}, {295, 213, 252, 253, 254}, {296, 214, 253, 254, 255}, {256, 297, 215, 254, 255}, {256, 257, 298, 216, 255}, {256, 257, 258, 299, 217}, {257, 258, 259, 300, 218}, {258, 259, 260, 301, 219}, {259, 260, 261, 302, 220}, {260, 261, 262, 303, 221}, {261, 262, 263, 304, 222}, {262, 263, 264, 305, 223}, {224, 263, 264, 265, 306}, {225, 264, 265, 266, 307}, {226, 265, 266, 267, 308}, {227, 266, 267, 268, 309}, {228, 267, 268, 269, 310}, {229, 268, 269, 270, 311}, {230, 269, 270, 271, 312}, {231, 270, 271}, {272, 232, 315, 273}, {233, 272, 273, 274, 316}, {234, 273, 274, 275, 317}, {235, 274, 275, 276, 318}, {236, 275, 276, 277, 319}, {320, 237, 276, 277, 278}, {321, 238, 277, 278, 279}, {322, 239, 278, 279, 280}, {323, 240, 279, 280, 281}, {324, 241, 280, 281, 282}, {325, 242, 281, 282, 283}, {326, 243, 282, 283, 284}, {327, 244, 283, 284, 285}, {328, 245, 284, 285, 286}, {329, 246, 285, 286, 287}, {288, 330, 247, 286, 287}, {288, 289, 331, 248, 287}, {288, 289, 290, 332, 249}, {289, 290, 291, 333, 250}, {290, 291, 292, 334}, {291, 292, 293, 335}, {292, 293, 294, 336, 251}, {293, 294, 295, 337, 252}, {294, 295, 296, 338, 253}, {295, 296, 297, 339, 254}, {296, 297, 298, 340, 255}, {256, 297, 298, 299, 341}, {257, 298, 299, 300, 342}, {258, 299, 300, 301, 343}, {259, 300, 301, 302, 344}, {260, 301, 302, 303, 345}, {261, 302, 303, 304, 346}, {262, 303, 304, 305, 347}, {263, 304, 305, 306, 348}, {264, 305, 306, 307, 349}, {265, 306, 307, 308, 350}, {266, 307, 308, 309, 351}, {352, 267, 308, 309, 310}, {353, 268, 309, 310, 311}, {354, 269, 310, 311, 312}, {312, 355, 270, 311}, {313, 314, 356}, {313, 314, 315, 357}, {358, 272, 314, 315, 316}, {359, 273, 315, 316, 317}, {360, 274, 316, 317, 318}, {361, 275, 317, 318, 319}, {320, 362, 276, 318, 319}, {320, 321, 363, 277, 319}, {320, 321, 322, 364, 278}, {321, 322, 323, 365, 279}, {322, 323, 324, 366, 280}, {323, 324, 325, 367, 281}, {324, 325, 326, 368, 282}, {325, 326, 327, 369, 283}, {326, 327, 328, 370, 284}, {327, 328, 329, 371, 285}, {328, 329, 330, 372, 286}, {329, 330, 331, 373, 287}, {288, 330, 331, 332, 374}, {289, 331, 332, 333, 375}, {290, 332, 333, 334, 376}, {291, 333, 334, 335, 377}, {292, 334, 335, 336, 378}, {293, 335, 336, 337, 379}, {294, 336, 337, 338, 380}, {295, 337, 338, 339, 381}, {296, 338, 339, 340, 382}, {297, 339, 340, 341, 383}, {384, 298, 340, 341, 342}, {385, 299, 341, 342, 343}, {386, 300, 342, 343, 344}, {387, 301, 343, 344, 345}, {388, 302, 344, 345, 346}, {389, 303, 345, 346, 347}, {390, 304, 346, 347, 348}, {391, 305, 347, 348, 349}, {392, 306, 348, 349, 350}, {307, 349, 350, 351}, {352, 308, 350, 351}, {352, 353, 309, 351}, {352, 353, 354, 310}, {353, 354, 355, 311}, {312, 354, 355}, {313, 393, 356, 357}, {356, 357, 358, 394, 314}, {357, 358, 359, 395, 315}, {358, 359, 360, 396, 316}, {359, 360, 361, 397, 317}, {360, 361, 362, 398, 318}, {361, 362, 363, 399, 319}, {320, 362, 363, 364, 400}, {321, 363, 364, 365, 401}, {322, 364, 365, 366, 402}, {323, 365, 366, 367, 403}, {324, 366, 367, 368, 404}, {325, 367, 368, 369, 405}, {326, 368, 369, 370, 406}, {327, 369, 370, 371, 407}, {328, 370, 371, 372, 408}, {329, 371, 372, 373, 409}, {330, 372, 373, 374, 410}, {331, 373, 374, 375, 411}, {332, 374, 375, 376, 412}, {333, 375, 376, 377, 413}, {376, 377, 378, 334}, {377, 378, 379, 335}, {336, 378, 379, 380}, {337, 379, 380, 381, 414}, {338, 380, 381, 382, 415}, {416, 339, 381, 382, 383}, {384, 417, 340, 382, 383}, {384, 385, 418, 341, 383}, {384, 385, 386, 419, 342}, {385, 386, 387, 420, 343}, {386, 387, 388, 421, 344}, {387, 388, 389, 422, 345}, {388, 389, 390, 423, 346}, {389, 390, 391, 424, 347}, {390, 391, 392, 425, 348}, {392, 426, 349, 391}, {393, 394, 356}, {393, 394, 395, 357}, {394, 395, 396, 358}, {395, 396, 397, 359}, {360, 396, 397, 398}, {361, 397, 398, 399}, {400, 362, 398, 399}, {400, 401, 363, 399}, {400, 401, 402, 364}, {401, 402, 403, 365}, {402, 403, 404, 366}, {403, 404, 405, 367}, {368, 404, 405, 406}, {369, 405, 406, 407}, {408, 370, 406, 407}, {408, 409, 371, 407}, {427, 372, 408, 409, 410}, {428, 373, 409, 410, 411}, {429, 374, 410, 411, 412}, {430, 375, 411, 412, 413}, {376, 412, 413, 431}, {432, 380, 414, 415}, {416, 433, 381, 414, 415}, {416, 417, 434, 382, 415}, {416, 417, 418, 435, 383}, {384, 417, 418, 419, 436}, {385, 418, 419, 420, 437}, {386, 419, 420, 421, 438}, {387, 420, 421, 422, 439}, {388, 421, 422, 423, 440}, {389, 422, 423, 424, 441}, {390, 423, 424, 425, 442}, {391, 424, 425, 426, 443}, {392, 425, 426, 444}, {409, 427, 428, 445}, {427, 428, 429, 410, 446}, {428, 429, 430, 411, 447}, {448, 429, 430, 431, 412}, {449, 413, 430, 431}, {432, 433, 414}, {432, 433, 434, 415}, {416, 450, 433, 434, 435}, {417, 451, 434, 435, 436}, {418, 452, 435, 436, 437}, {419, 453, 436, 437, 438}, {420, 454, 437, 438, 439}, {421, 455, 438, 439, 440}, {422, 456, 439, 440, 441}, {423, 457, 440, 441, 442}, {424, 458, 441, 442, 443}, {425, 459, 442, 443, 444}, {460, 426, 443, 444}, {461, 427, 445, 446}, {428, 462, 445, 446, 447}, {448, 429, 463, 446, 447}, {448, 449, 430, 464, 447}, {448, 449, 465, 431}, {434, 466, 450, 451}, {450, 451, 452, 435, 467}, {451, 452, 453, 468, 436}, {452, 453, 454, 469, 437}, {453, 454, 455, 470, 438}, {471, 454, 455, 456, 439}, {440, 455, 456, 457, 472}, {456, 457, 458, 473, 441}, {457, 458, 459, 474, 442}, {458, 459, 460, 475, 443}, {476, 444, 459, 460}, {477, 461, 462, 445}, {446, 461, 462, 463, 478}, {479, 462, 463, 464, 447}, {480, 448, 463, 464, 465}, {464, 465, 449, 481}, {482, 450, 466, 467}, {451, 483, 466, 467, 468}, {484, 452, 467, 468, 469}, {453, 485, 468, 469, 470}, {486, 454, 469, 470, 471}, {455, 487, 470, 471, 472}, {488, 456, 471, 472, 473}, {457, 489, 472, 473, 474}, {490, 458, 473, 474, 475}, {459, 491, 474, 475, 476}, {460, 476, 492, 475}, {461, 498, 477, 478}, {462, 499, 477, 478, 479}, {480, 463, 500, 478, 479}, {480, 481, 464, 501, 479}, {480, 481, 465, 502}, {466, 482, 483, 503}, {482, 483, 484, 467, 504}, {483, 484, 485, 468, 505}, {484, 485, 486, 469, 506}, {485, 486, 487, 470, 507}, {486, 487, 488, 471, 508}, {487, 488, 489, 472, 509}, {488, 489, 490, 473, 510}, {489, 490, 491, 474, 511}, {512, 490, 491, 492, 475}, {513, 491, 492, 493, 476}, {514, 492, 493, 494}, {515, 493, 494, 495}, {496, 516, 494, 495}, {496, 497, 517, 495}, {496, 497}, {498, 499, 477, 518}, {519, 498, 499, 500, 478}, {520, 499, 500, 501, 479}, {480, 521, 500, 501, 502}, {481, 522, 501, 502}, {504, 482, 523, 503}, {483, 524, 503, 504, 505}, {484, 525, 504, 505, 506}, {485, 526, 505, 506, 507}, {486, 527, 506, 507, 508}, {487, 528, 507, 508, 509}, {488, 529, 508, 509, 510}, {489, 530, 509, 510, 511}, {512, 490, 531, 510, 511}, {512, 513, 491, 532, 511}, {512, 513, 514, 492, 533}, {513, 514, 515, 493, 534}, {514, 515, 516, 494, 535}, {515, 516, 517, 495, 536}, {496, 537, 516, 517}, {498, 538, 518, 519}, {518, 519, 520, 499, 539}, {519, 520, 521, 500, 540}, {520, 521, 522, 501, 541}, {521, 522, 502, 542}, {523, 524, 543, 503}, {544, 523, 524, 525, 504}, {545, 524, 525, 526, 505}, {546, 525, 526, 527, 506}, {547, 526, 527, 528, 507}, {548, 527, 528, 529, 508}, {549, 528, 529, 530, 509}, {550, 529, 530, 531, 510}, {551, 530, 531, 532, 511}, {512, 552, 531, 532, 533}, {513, 553, 532, 533, 534}, {514, 554, 533, 534, 535}, {515, 555, 534, 535, 536}, {516, 556, 535, 536, 537}, {536, 537, 557, 517}, {560, 538, 539, 518}, {519, 561, 538, 539, 540}, {520, 562, 539, 540, 541}, {521, 563, 540, 541, 542}, {522, 564, 541, 542}, {544, 523, 565, 543}, {544, 545, 524, 566, 543}, {544, 545, 546, 525, 567}, {545, 546, 547, 526, 568}, {546, 547, 548, 527, 569}, {547, 548, 549, 528, 570}, {548, 549, 550, 529, 571}, {549, 550, 551, 530, 572}, {550, 551, 552, 531, 573}, {551, 552, 553, 532, 574}, {552, 553, 554, 533, 575}, {576, 553, 554, 555, 534}, {577, 554, 555, 556, 535}, {536, 555, 556, 557}, {537, 556, 557, 558}, {557, 558, 559}, {578, 558, 559}, {560, 561, 538, 579}, {580, 560, 561, 562, 539}, {581, 561, 562, 563, 540}, {582, 562, 563, 564, 541}, {563, 564, 542, 583}, {584, 565, 566, 543}, {544, 585, 565, 566, 567}, {545, 586, 566, 567, 568}, {546, 587, 567, 568, 569}, {547, 588, 568, 569, 570}, {548, 589, 569, 570, 571}, {549, 590, 570, 571, 572}, {550, 591, 571, 572, 573}, {551, 592, 572, 573, 574}, {552, 593, 573, 574, 575}, {576, 553, 594, 574, 575}, {576, 577, 554, 595, 575}, {576, 577, 555, 596}, {578, 597, 559}, {560, 600, 579, 580}, {579, 580, 581, 561, 601}, {580, 581, 582, 562, 602}, {581, 582, 583, 563, 603}, {564, 604, 582, 583}, {584, 585, 565, 607}, {608, 584, 585, 586, 566}, {609, 585, 586, 587, 567}, {610, 586, 587, 588, 568}, {611, 587, 588, 589, 569}, {612, 588, 589, 590, 570}, {613, 589, 590, 591, 571}, {614, 590, 591, 592, 572}, {615, 591, 592, 593, 573}, {616, 592, 593, 594, 574}, {617, 593, 594, 595, 575}, {576, 618, 594, 595, 596}, {577, 595, 596}, {578, 619, 597, 598}, {620, 597, 598, 599}, {621, 598, 599}, {600, 601, 579, 622}, {580, 623, 600, 601, 602}, {581, 624, 601, 602, 603}, {582, 625, 602, 603, 604}, {626, 603, 604, 583}, {627, 605, 606}, {628, 605, 606, 607}, {608, 584, 629, 606, 607}, {608, 609, 585, 630, 607}, {608, 609, 610, 586, 631}, {609, 610, 611, 587, 632}, {610, 611, 612, 588, 633}, {611, 612, 613, 589, 634}, {612, 613, 614, 590, 635}, {613, 614, 615, 591, 636}, {614, 615, 616, 592, 637}, {615, 616, 617, 593, 638}, {616, 617, 618, 594, 639}, {617, 618, 595}, {619, 620, 597}, {640, 619, 620, 621, 598}, {641, 620, 621, 599}, {600, 647, 622, 623}, {648, 622, 623, 624, 601}, {649, 623, 624, 625, 602}, {650, 624, 625, 626, 603}, {625, 626, 651, 604}, {652, 627, 628, 605}, {653, 627, 628, 629, 606}, {654, 628, 629, 630, 607}, {608, 655, 629, 630, 631}, {609, 656, 630, 631, 632}, {610, 657, 631, 632, 633}, {611, 658, 632, 633, 634}, {612, 659, 633, 634, 635}, {613, 660, 634, 635, 636}, {614, 661, 635, 636, 637}, {615, 662, 636, 637, 638}, {616, 663, 637, 638, 639}, {664, 617, 638, 639}, {640, 641, 620}, {640, 641, 665, 621}, {642, 643, 667}, {642, 643, 644}, {643, 644, 645}, {668, 644, 645}, {671, 646, 647}, {672, 646, 647, 648, 622}, {673, 647, 648, 649, 623}, {674, 648, 649, 650, 624}, {675, 649, 650, 651, 625}, {626, 651, 676, 650}, {627, 652, 653, 677}, {678, 652, 653, 654, 628}, {679, 653, 654, 655, 629}, {680, 654, 655, 656, 630}, {681, 655, 656, 657, 631}, {682, 656, 657, 658, 632}, {683, 657, 658, 659, 633}, {684, 658, 659, 660, 634}, {685, 659, 660, 661, 635}, {686, 660, 661, 662, 636}, {687, 661, 662, 663, 637}, {688, 662, 663, 664, 638}, {664, 663, 689, 639}, {665, 641, 691}, {666, 667, 692}, {642, 667, 693, 666}, {694, 668, 645, 669}, {668, 669, 670, 695}, {696, 669, 670, 671}, {672, 646, 697, 670, 671}, {672, 673, 647, 698, 671}, {672, 673, 674, 648, 699}, {673, 674, 675, 649, 700}, {674, 675, 676, 650, 701}, {651, 676, 675, 702}, {652, 677, 678, 703}, {704, 677, 678, 679, 653}, {705, 678, 679, 680, 654}, {706, 679, 680, 681, 655}, {707, 680, 681, 682, 656}, {708, 681, 682, 683, 657}, {709, 682, 683, 684, 658}, {710, 683, 684, 685, 659}, {711, 684, 685, 686, 660}, {712, 685, 686, 687, 661}, {713, 686, 687, 688, 662}, {714, 687, 688, 689, 663}, {664, 689, 715, 688}, {690, 691, 716}, {665, 690, 691, 717}, {666, 692, 693}, {667, 692, 693}, {668, 718, 694, 695}, {719, 694, 695, 696, 669}, {720, 695, 696, 697, 670}, {721, 696, 697, 698, 671}, {672, 722, 697, 698, 699}, {673, 723, 698, 699, 700}, {674, 724, 699, 700, 701}, {675, 725, 700, 701, 702}, {726, 676, 701, 702}, {704, 727, 677, 703}, {704, 705, 678, 728, 703}, {704, 705, 706, 679, 729}, {705, 706, 707, 680, 730}, {706, 707, 708, 681, 731}, {682, 707, 708, 709}, {683, 708, 709, 710}, {684, 709, 710, 711}, {710, 711, 712, 685, 732}, {711, 712, 713, 686, 733}, {712, 713, 714, 687, 734}, {713, 714, 715, 688, 735}, {736, 689, 714, 715}, {690, 738, 716, 717}, {691, 716, 717, 739}, {694, 742, 718, 719}, {720, 695, 718, 719}, {720, 721, 696, 719}, {720, 721, 722, 697}, {743, 721, 722, 723, 698}, {744, 722, 723, 724, 699}, {745, 723, 724, 725, 700}, {746, 724, 725, 726, 701}, {747, 702, 725, 726}, {728, 703, 748, 727}, {704, 749, 727, 728, 729}, {705, 750, 728, 729, 730}, {706, 751, 729, 730, 731}, {752, 730, 731, 707}, {753, 732, 733, 711}, {712, 754, 732, 733, 734}, {713, 755, 733, 734, 735}, {736, 714, 756, 734, 735}, {736, 737, 715, 757, 735}, {736, 737, 758}, {761, 738, 739, 716}, {762, 738, 739, 717}, {740, 741}, {740, 741, 742}, {741, 718, 742}, {744, 722, 763, 743}, {743, 744, 745, 723, 764}, {744, 745, 746, 724, 765}, {745, 746, 747, 725, 766}, {746, 747, 726, 767}, {768, 748, 749, 727}, {769, 748, 749, 750, 728}, {770, 749, 750, 751, 729}, {771, 750, 751, 752, 730}, {752, 731, 772, 751}, {753, 754, 732, 773}, {774, 753, 754, 755, 733}, {775, 754, 755, 756, 734}, {776, 755, 756, 757, 735}, {736, 777, 756, 757, 758}, {737, 778, 757, 758}, {760, 782, 759}, {760, 761, 783, 759}, {738, 784, 760, 761, 762}, {761, 762, 739, 785}, {763, 764, 743}, {744, 763, 764, 765}, {745, 764, 765, 766}, {746, 786, 765, 766, 767}, {787, 747, 766, 767}, {768, 769, 748, 788}, {768, 769, 770, 749, 789}, {769, 770, 771, 750, 790}, {770, 771, 772, 751, 791}, {752, 792, 771, 772}, {753, 773, 774, 793}, {773, 774, 775, 754, 794}, {774, 775, 776, 755, 795}, {775, 776, 777, 756, 796}, {776, 777, 778, 757, 797}, {777, 778, 779, 758}, {778, 779, 780}, {779, 780, 781}, {780, 781, 782, 798}, {781, 782, 783, 759, 799}, {800, 782, 783, 784, 760}, {801, 783, 784, 785, 761}, {784, 785, 762, 802}, {803, 786, 787, 766}, {786, 787, 804, 767}, {768, 805, 788, 789}, {769, 806, 788, 789, 790}, {770, 807, 789, 790, 791}, {771, 808, 790, 791, 792}, {792, 809, 772, 791}, {793, 794, 810, 773}, {774, 811, 793, 794, 795}, {775, 812, 794, 795, 796}, {776, 813, 795, 796, 797}, {777, 796, 797, 814}, {815, 781, 798, 799}, {800, 782, 816, 798, 799}, {800, 801, 783, 817, 799}, {800, 801, 802, 784, 818}, {785, 802, 819, 801}, {786, 803, 804, 820}, {803, 787, 804, 821}, {822, 788, 805, 806}, {805, 806, 807, 789, 823}, {806, 807, 808, 790, 824}, {807, 808, 809, 791, 825}, {792, 809, 808, 826}, {793, 810, 811, 827}, {810, 811, 812, 794, 828}, {811, 812, 813, 795, 829}, {812, 813, 814, 796, 830}, {813, 797, 814, 831}, {816, 832, 798, 815}, {833, 815, 816, 817, 799}, {800, 834, 816, 817, 818}, {801, 835, 817, 818, 819}, {802, 819, 818, 836}, {803, 820, 821, 838}, {804, 821, 820, 839}, {840, 805, 822, 823}, {806, 841, 822, 823, 824}, {807, 842, 823, 824, 825}, {808, 843, 824, 825, 826}, {809, 826, 844, 825}, {810, 827, 828, 845}, {811, 846, 827, 828, 829}, {812, 847, 828, 829, 830}, {813, 848, 829, 830, 831}, {830, 849, 814, 831}, {832, 833, 815}, {816, 833, 834, 832}, {833, 817, 834, 835}, {818, 835, 836, 834}, {835, 819, 836}, {837, 838}, {820, 837, 838, 839}, {821, 838, 839}, {840, 841, 822}, {840, 841, 842, 823}, {824, 841, 842, 843}, {825, 842, 843, 844}, {826, 843, 844}, {850, 827, 845, 846}, {845, 846, 847, 851, 828}, {846, 847, 848, 852, 829}, {847, 848, 849, 853, 830}, {848, 849, 854, 831}, {850, 851, 845, 855}, {846, 850, 851, 852, 856}, {847, 851, 852, 853, 857}, {848, 852, 853, 854, 858}, {849, 859, 853, 854}, {856, 850, 860, 855}, {851, 855, 856, 857, 861}, {852, 856, 857, 858, 862}, {853, 857, 858, 859, 863}, {864, 858, 859, 854}, {860, 861, 855}, {856, 860, 861, 862}, {857, 861, 862, 863}, {864, 858, 862, 863}, {864, 859, 863}];
input = [|395, 318|516, 514|411, 427|507, 551|802, 818|363, 407|367, 137|253, 378|86, 45|87, 27|445, 250|601, 763|197, 357|723, 765|812, 736|482, 345|61, 37|244, 285|114, 13|390, 262|];
V = 864;
A = 20;
E = 1546;
maxTime=13